<number of tasks>
100

<cycle time>
1000

<order strength>
0.602


<task times>
1 152
2 99
3 125
4 57
5 23
6 547
7 113
8 142
9 502
10 176
11 175
12 72
13 22
14 213
15 89
16 87
17 294
18 144
19 200
20 204
21 275
22 24
23 314
24 215
25 39
26 214
27 45
28 182
29 212
30 79
31 527
32 64
33 90
34 247
35 290
36 83
37 189
38 144
39 89
40 490
41 44
42 440
43 105
44 122
45 168
46 235
47 22
48 148
49 271
50 347
51 235
52 126
53 50
54 187
55 48
56 21
57 525
58 59
59 282
60 247
61 471
62 106
63 175
64 223
65 28
66 499
67 128
68 155
69 254
70 489
71 112
72 40
73 400
74 258
75 313
76 512
77 208
78 126
79 592
80 125
81 194
82 421
83 193
84 314
85 299
86 269
87 55
88 85
89 409
90 23
91 246
92 79
93 535
94 309
95 168
96 246
97 270
98 176
99 121
100 240

<precedence relations>
1,26
2,22
3,22
4,84
5,72
6,7
6,8
6,9
6,10
6,11
6,12
6,13
7,26
8,26
9,22
10,22
11,22
12,72
13,14
13,15
13,16
13,17
13,18
14,22
15,22
16,22
17,44
18,19
18,20
18,21
18,22
18,23
18,24
18,25
19,26
20,26
21,54
22,27
22,28
22,29
22,30
22,31
22,32
22,33
22,34
23,84
24,84
25,35
25,47
25,55
26,36
26,37
26,38
26,39
26,40
26,41
26,42
27,54
28,43
28,49
29,42
29,67
29,73
29,74
30,42
30,66
31,42
31,52
31,73
32,70
32,72
32,73
33,42
33,46
33,52
34,52
34,67
34,68
35,42
35,44
35,56
35,57
36,44
36,45
36,47
36,57
37,46
37,83
38,44
38,45
38,56
39,44
39,46
39,48
39,49
40,47
40,48
40,65
40,86
41,53
41,74
42,72
43,44
43,45
43,48
44,54
45,54
46,84
47,84
48,72
49,50
49,51
49,52
49,53
50,54
51,84
52,55
52,56
52,57
52,70
53,55
53,57
53,66
54,58
54,59
54,60
54,61
54,62
54,63
54,64
55,72
56,65
56,66
56,76
57,64
57,69
58,72
59,66
59,70
60,67
60,68
60,70
61,67
61,69
61,71
62,96
63,72
64,65
64,76
64,83
65,84
66,72
67,72
68,71
68,73
70,74
71,84
72,77
72,78
72,79
72,80
72,81
72,82
72,84
73,76
74,75
74,83
75,84
76,84
78,85
81,99
82,85
82,98
82,99
83,85
83,86
83,96
84,87
84,88
84,89
84,90
84,91
84,92
84,93
85,100
86,95
88,96
88,100
90,94
90,97
91,94
93,95
93,100
94,99
94,100
95,98
96,98
96,99
97,100

<end>
